c {"clauses":7,"maxClauseSize":16,"minClauseSize":7,"totalLiterals":87,"variables":55}
p cnf 55 7
-1 -2 -3 -4 -5 6 -7 -8 9 8 -10 11 12 -13 14 0
15 -16 -17 -18 19 -20 -13 -16 21 10 -22 -23 -24 -25 26 0
-27 22 -14 28 29 30 31 -12 -1 32 0
10 -33 -28 34 -12 -35 -34 36 -37 38 0
31 -39 40 -27 41 41 -42 26 43 35 11 44 -26 -45 -10 -27 0
-17 -46 3 12 -10 -47 -48 -9 -49 4 -50 -27 -34 45 0
-5 -51 26 52 53 54 -55 0
